  (declare-datatypes () ((MyBool (MyTrue) (MyFalse))))
  (declare-datatypes () ((Nat (Zero) (Succ (proj_Succ_0 Nat)))))
  (declare-datatypes () ((List (Elt (proj_Elt_0 Nat)) (Cons (proj_Cons_0 Nat) (proj_Cons_1 List)))))
  (declare-datatypes () ((CList (Single (proj_Single_0 Nat)) (Concat (proj_Concat_0 CList) (proj_Concat_1 CList)))))
  (declare-fun lq (Nat Nat) MyBool)
  (declare-fun ite2 (MyBool Nat Nat) Nat)
  (declare-fun min (Nat Nat) Nat)
  (declare-fun tf1 (List) Nat)
  (declare-fun tf0 (List) Nat)
  (declare-fun spec (List) Nat)
  (declare-fun tf3 (List List) List)
  (declare-fun tf2 (List List) List)
  (declare-fun cat (List List) List)
  (declare-fun tf5 (CList) List)
  (declare-fun tf4 (CList) List)
  (declare-fun repr (CList) List)
  (declare-fun main (CList) Nat)
  (declare-fun tf7 (CList) Nat)
  (declare-fun tf6 (CList) Nat)
  (declare-fun reprNew (CList) Nat)
  (declare-fun mainNew (CList) Nat)
  (assert (= (lq Zero Zero) MyFalse))
  (assert (forall ((x Nat)) (= (lq Zero (Succ x)) MyTrue)))
  (assert (forall ((x Nat)) (= (lq (Succ x) Zero) MyFalse)))
  (assert (forall ((y Nat) (x Nat)) (= (lq (Succ x) (Succ y)) (lq x y))))
  (assert (forall ((y Nat) (x Nat)) (= (ite2 MyTrue x y) x)))
  (assert (forall ((y Nat) (x Nat)) (= (ite2 MyFalse x y) y)))
  (assert (forall ((tv1 Nat) (tv0 Nat)) (= (min tv0 tv1) (ite2 (lq tv0 tv1) tv0 tv1))))
  (assert (forall ((tv5 Nat)) (= (tf1 (Elt tv5)) tv5)))
  (assert (forall ((tv7 List) (tv6 Nat)) (= (tf1 (Cons tv6 tv7)) (min tv6 (tf0 tv7)))))
  (assert (forall ((tv3 List)) (= (tf0 tv3) (tf1 tv3))))
  (assert (forall ((tv2 List)) (= (spec tv2) (tf0 tv2))))
  (assert (forall ((tv14 Nat) (tv13 List)) (= (tf3 tv13 (Elt tv14)) (Cons tv14 tv13))))
  (assert (forall ((tv16 List) (tv15 Nat) (tv13 List)) (= (tf3 tv13 (Cons tv15 tv16)) (Cons tv15 (tf2 tv16 tv13)))))
  (assert (forall ((tv11 List) (tv10 List)) (= (tf2 tv10 tv11) (tf3 tv11 tv10))))
  (assert (forall ((tv9 List) (tv8 List)) (= (cat tv8 tv9) (tf2 tv8 tv9))))
  (assert (forall ((tv20 Nat)) (= (tf5 (Single tv20)) (Elt tv20))))
  (assert (forall ((tv22 CList) (tv21 CList)) (= (tf5 (Concat tv21 tv22)) (cat (tf4 tv21) (tf4 tv22)))))
  (assert (forall ((tv18 CList)) (= (tf4 tv18) (tf5 tv18))))
  (assert (forall ((tv17 CList)) (= (repr tv17) (tf4 tv17))))
  (assert (forall ((tv23 CList)) (= (main tv23) (spec (repr tv23)))))
  (assert (forall ((tv27 Nat)) (= (tf7 (Single tv27)) tv27)))
  (assert (forall ((tv29 CList) (tv28 CList)) (= (tf7 (Concat tv28 tv29)) (min (tf6 tv29) (tf6 tv28)))))
  (assert (forall ((tv25 CList)) (= (tf6 tv25) (tf7 tv25))))
  (assert (forall ((tv24 CList)) (= (reprNew tv24) (tf6 tv24))))
  (assert (forall ((tv30 CList)) (= (mainNew tv30) (reprNew tv30))))
  (assert (not (forall ((inp0 CList)) (= (main inp0) (mainNew inp0)))))
  (check-sat)
